NAME:  test1
TYPE: AGTSP
COMMENT: gtsp tours
DIMENSION:  61
GTSP_SETS: 13
EDGE_WEIGHT_TYPE: EXPLICIT
EDGE_WEIGHT_FORMAT: FULL_MATRIX 
EDGE_WEIGHT_SECTION
999999	0	999999	999999	999999	26929	26929	26929	26929	26921	26909	26909	26909	26901	999999	26932	26932	26932	26932	26924	26933	26933	26933	26933	26925	26903	26903	26895	999999	999999	26911	26911	26911	26903	999999	26920	26920	26920
999999	999999	0	999999	999999	26929	26929	26929	999999	999999	26909	26909	26909	26909	26901	26932	26932	26932	999999	999999	26933	26933	26933	999999	999999	26903	26903	26903	26895	999999	26911	26911	26911	26911	26903	26920	26920	26920
999999	999999	999999	0	999999	26929	26929	26929	26929	999999	26909	26909	26909	26909	999999	26932	26932	26932	26932	999999	26933	26933	26933	26933	999999	26903	26903	26903	26903	26895	26911	26911	26911	26911	999999	26920	26920	26920
999999	999999	999999	999999	0	26929	26929	26929	26929	26929	26909	26909	26909	26909	26909	26932	26932	26932	26932	26932	26933	26933	26933	26933	26933	26903	26903	26903	26903	26903	26911	26911	26911	26911	26911	26920	26920	26920
0	999999	999999	999999	999999	26929	26929	26929	26921	999999	26909	26909	26901	999999	999999	26932	26932	26932	26924	999999	26933	26933	26933	26925	999999	26903	26895	999999	999999	999999	26911	26911	26903	999999	999999	26920	26920	26912
26929	26929	26929	26929	26921	999999	0	999999	999999	999999	26932	26932	26932	26932	26924	26890	26890	26882	999999	999999	26915	26915	26915	26907	999999	26913	26913	26913	26905	999999	26922	26922	26922	26922	26914	26921	26921	26921
26929	26929	26929	999999	999999	999999	999999	0	999999	999999	26932	26932	26932	999999	999999	26890	26890	26890	26882	999999	26915	26915	26915	26915	26907	26913	26913	26913	26913	26905	26922	26922	26922	999999	999999	26921	26921	26921
26929	26929	26929	26929	999999	999999	999999	999999	0	999999	26932	26932	26932	26932	999999	26890	26890	26890	26890	26882	26915	26915	26915	26915	999999	26913	26913	26913	26913	999999	26922	26922	26922	26922	999999	26921	26921	26921
26929	26929	26929	26929	26929	999999	999999	999999	999999	0	26932	26932	26932	26932	26932	26890	26890	26890	26890	26890	26915	26915	26915	26915	26915	26913	26913	26913	26913	26913	26922	26922	26922	26922	26922	26921	26921	26921
26929	26929	26929	26921	999999	0	999999	999999	999999	999999	26932	26932	26932	26924	999999	26890	26882	999999	999999	999999	26915	26915	26907	999999	999999	26913	26913	26905	999999	999999	26922	26922	26922	26914	999999	26921	26921	26913
26909	26909	26909	26901	999999	26932	26932	26932	26932	26924	999999	0	999999	999999	999999	26934	26934	26934	26934	26926	26922	26922	26922	26922	26914	26914	26914	26914	26906	999999	26929	26929	26929	26929	26921	26906	26906	26906
26909	26909	26909	26909	26901	26932	26932	26932	999999	999999	999999	999999	0	999999	999999	26934	26934	26934	999999	999999	26922	26922	26922	999999	999999	26914	26914	26914	26914	26906	26929	26929	26929	999999	999999	26906	26906	26906
26909	26909	26909	26909	999999	26932	26932	26932	26932	999999	999999	999999	999999	0	999999	26934	26934	26934	26934	999999	26922	26922	26922	26922	999999	26914	26914	26914	26914	999999	26929	26929	26929	26929	999999	26906	26906	26906
26909	26909	26909	26909	26909	26932	26932	26932	26932	26932	999999	999999	999999	999999	0	26934	26934	26934	26934	26934	26922	26922	26922	26922	26922	26914	26914	26914	26914	26914	26929	26929	26929	26929	26929	26906	26906	26906
26909	26909	26901	999999	999999	26932	26932	26932	26924	999999	0	999999	999999	999999	999999	26934	26934	26934	26926	999999	26922	26922	26922	26914	999999	26914	26914	26906	999999	999999	26929	26929	26929	26921	999999	26906	26906	26898
26932	26932	26932	26932	26924	26890	26890	26882	999999	999999	26934	26934	26934	26934	26926	999999	0	999999	999999	999999	26915	26915	26915	26907	999999	26916	26916	26916	26908	999999	26925	26925	26925	26925	26917	26923	26923	26923
26932	26932	26932	999999	999999	26890	26890	26890	26882	999999	26934	26934	26934	999999	999999	999999	999999	0	999999	999999	26915	26915	26915	26915	26907	26916	26916	26916	26916	26908	26925	26925	26925	999999	999999	26923	26923	26923
26932	26932	26932	26932	999999	26890	26890	26890	26890	26882	26934	26934	26934	26934	999999	999999	999999	999999	0	999999	26915	26915	26915	26915	999999	26916	26916	26916	26916	999999	26925	26925	26925	26925	999999	26923	26923	26923
26932	26932	26932	26932	26932	26890	26890	26890	26890	26890	26934	26934	26934	26934	26934	999999	999999	999999	999999	0	26915	26915	26915	26915	26915	26916	26916	26916	26916	26916	26925	26925	26925	26925	26925	26923	26923	26923
26932	26932	26932	26924	999999	26890	26882	999999	999999	999999	26934	26934	26934	26926	999999	0	999999	999999	999999	999999	26915	26915	26907	999999	999999	26916	26916	26908	999999	999999	26925	26925	26925	26917	999999	26923	26923	26923
26933	26933	26933	26933	26925	26915	26915	26915	26907	999999	26922	26922	26922	26922	26914	26915	26915	26915	26907	999999	999999	0	999999	999999	999999	26923	26923	26923	26923	26915	26940	26940	999999	999999	999999	26904	26904	26896
26933	26933	26933	999999	999999	26915	26915	26915	26915	26907	26922	26922	26922	999999	999999	26915	26915	26915	26915	26907	999999	999999	0	999999	999999	26923	26923	26923	999999	999999	26940	26940	26940	999999	999999	26904	26904	26904
26933	26933	26933	26933	999999	26915	26915	26915	26915	999999	26922	26922	26922	26922	999999	26915	26915	26915	26915	999999	999999	999999	999999	0	999999	26923	26923	26923	26923	999999	26940	26940	26940	26940	999999	26904	26904	26904
26933	26933	26933	26933	26933	26915	26915	26915	26915	26915	26922	26922	26922	26922	26922	26915	26915	26915	26915	26915	999999	999999	999999	999999	0	26923	26923	26923	26923	26923	26940	26940	26940	26940	26940	26904	26904	26904
26933	26933	26933	26925	999999	26915	26915	26907	999999	999999	26922	26922	26922	26914	999999	26915	26915	26907	999999	999999	0	999999	999999	999999	999999	26923	26923	26923	26915	999999	26940	26940	26940	26940	26932	26904	26896	999999
26903	26903	26895	999999	999999	26913	26913	26913	26905	999999	26914	26914	26914	26906	999999	26916	26916	26916	26908	999999	26923	26923	26923	26923	26915	999999	0	999999	999999	999999	26905	26905	26905	26897	999999	26915	26915	26915
26903	26903	26903	26895	999999	26913	26913	26913	26913	26905	26914	26914	26914	26914	26906	26916	26916	26916	26916	26908	26923	26923	26923	999999	999999	999999	999999	0	999999	999999	26905	26905	26905	26905	26897	26915	26915	26915
26903	26903	26903	26903	26895	26913	26913	26913	26913	999999	26914	26914	26914	26914	999999	26916	26916	26916	26916	999999	26923	26923	26923	26923	999999	999999	999999	999999	0	999999	26905	26905	26905	26905	999999	26915	26915	26915
26903	26903	26903	26903	26903	26913	26913	26913	26913	26913	26914	26914	26914	26914	26914	26916	26916	26916	26916	26916	26923	26923	26923	26923	26923	999999	999999	999999	999999	0	26905	26905	26905	26905	26905	26915	26915	26915
26903	26895	999999	999999	999999	26913	26913	26905	999999	999999	26914	26914	26906	999999	999999	26916	26916	26908	999999	999999	26923	26923	26923	26915	999999	0	999999	999999	999999	999999	26905	26905	26897	999999	999999	26915	26915	26907
26911	26911	26911	26903	999999	26922	26922	26922	26922	26914	26929	26929	26929	26929	26921	26925	26925	26925	26925	26917	26940	26940	999999	999999	999999	26905	26905	26905	26897	999999	999999	0	999999	999999	999999	26933	26933	26933
26911	26911	26911	26911	26903	26922	26922	26922	999999	999999	26929	26929	26929	999999	999999	26925	26925	26925	999999	999999	26940	26940	26940	999999	999999	26905	26905	26905	26905	26897	999999	999999	0	999999	999999	26933	26933	26933
26911	26911	26911	26911	999999	26922	26922	26922	26922	999999	26929	26929	26929	26929	999999	26925	26925	26925	26925	999999	26940	26940	26940	26940	999999	26905	26905	26905	26905	999999	999999	999999	999999	0	999999	26933	26933	26933
26911	26911	26911	26911	26911	26922	26922	26922	26922	26922	26929	26929	26929	26929	26929	26925	26925	26925	26925	26925	26940	26940	26940	26940	26940	26905	26905	26905	26905	26905	999999	999999	999999	999999	0	26933	26933	26933
26911	26911	26903	999999	999999	26922	26922	26922	26914	999999	26929	26929	26929	26921	999999	26925	26925	26925	26917	999999	26940	26940	26940	26940	26932	26905	26905	26897	999999	999999	0	999999	999999	999999	999999	26933	26933	26933
26920	26920	26920	26912	999999	26921	26921	26921	26913	999999	26906	26906	26906	26898	999999	26923	26923	26923	26923	26915	26904	26904	26896	999999	999999	26915	26915	26915	26907	999999	26933	26933	26933	26933	26925	999999	0	999999
26920	26920	26920	26920	26912	26921	26921	26921	26921	26913	26906	26906	26906	26906	26898	26923	26923	26923	999999	999999	26904	26904	26904	26896	999999	26915	26915	26915	26915	26907	26933	26933	26933	999999	999999	999999	999999	0
26920	26920	26920	26920	999999	26921	26921	26921	26921	999999	26906	26906	26906	26906	999999	26923	26923	26923	26923	999999	26904	26904	26904	26904	26896	26915	26915	26915	26915	999999	26933	26933	26933	26933	999999	999999	999999	999999
GTSP_SET_SECTION:
1 1 2 3 4 5 -1
2 6 7 8 9 10 -1
3 11 12 13 14 15 -1
4 16 17 18 19 20 -1
5 21 22 23 24 25 -1
6 26 27 28 29 30 -1
7 31 32 33 34 35 -1
8 36 37 38 39 40 -1
9 41 42 43 44 45 -1
10 46 47 48 49 50 -1
11 51 52 53 54 55 -1
12 56 57 58 59 60 -1
13 61 -1
EOF